NAME : custom-n9-greedy-convenient
COMMENT : ahreloco
TYPE : CVRP
DIMENSION : 9
EDGE_WEIGHT_TYPE : EUC_2D
CAPACITY : 100
NODE_COORD_SECTION
 1 0 0
 2 2 -3
 3 3 -3
 4 2 -4
 5 -2 5
 6 -2 4
 7 -3 4
 8 -3 3
 9 -3 2
DEMAND_SECTION
1 0
2 50
3 25
4 25
5 22
6 21
7 20
8 19
9 18
DEPOT_SECTION
 1
 -1
EOF
